c turning on binary mode checking
c parsing input formula with 259840 variables and 1039934 clauses
c finished parsing, read 4515903 bytes from proof file
c detected empty clause; start verification via backward checking
c 10267 of 1039934 clauses in core                            
c 3442 of 166100 lemmas in core using 96115 resolution steps
c 0 RAT lemmas in core; 559 redundant literals in core lemmas
s VERIFIED
c verification time: 1.700 seconds
